data;
set V := 1 2 3 4 5 6 7 8 9 10 11 12 13 14 15 16 17 18 19 20 21 22 23 24 25 26 27 28 29 30 31 32 33 34 35 36 37 38 39 40 41 42 43 44 45 46 47 48 49 50 51 52 53 54 55 56 57 58 59 60 61 62 63 64 65 66 67 68 69 70 71 72 73 74 75 76 77 78 79 80 81 82 83 84 85 86 87 88 89 90 91 92 93 94 95 96 97 98 99 100 101 102 103 104 105 106 107 108 109 110 111 112 113 114 115 116 117 118 119 120 121 122 123 124 125 126 127 128 129 130 131 132 133 134 135 136 137 138 139 140 141 142 143 144 145 146 147 148 149 150 151 152 153 154 155 156 157 158 159 160 161 162 163 164 165 166 167 168 169 170 171 172 173 174 175 176 177 178 179 180 181 182 183 184 185 186 187 188 189 190 191 192 193 194 195 196 197 198 199 200 201 202 203 204 205 206 207 208 209 210 211 212;
set E :=
	(1,2)
	(2,1)
	(1,4)
	(4,1)
	(1,14)
	(14,1)
	(1,16)
	(16,1)
	(1,54)
	(54,1)
	(1,56)
	(56,1)
	(1,66)
	(66,1)
	(1,68)
	(68,1)
	(2,3)
	(3,2)
	(2,13)
	(13,2)
	(2,15)
	(15,2)
	(2,53)
	(53,2)
	(2,55)
	(55,2)
	(2,65)
	(65,2)
	(2,67)
	(67,2)
	(3,6)
	(6,3)
	(3,10)
	(10,3)
	(3,14)
	(14,3)
	(3,18)
	(18,3)
	(3,22)
	(22,3)
	(3,54)
	(54,3)
	(3,58)
	(58,3)
	(3,62)
	(62,3)
	(3,66)
	(66,3)
	(3,70)
	(70,3)
	(3,74)
	(74,3)
	(4,5)
	(5,4)
	(4,10)
	(10,4)
	(4,13)
	(13,4)
	(4,17)
	(17,4)
	(4,22)
	(22,4)
	(4,53)
	(53,4)
	(4,57)
	(57,4)
	(4,62)
	(62,4)
	(4,65)
	(65,4)
	(4,69)
	(69,4)
	(4,74)
	(74,4)
	(5,8)
	(8,5)
	(5,11)
	(11,5)
	(5,16)
	(16,5)
	(5,20)
	(20,5)
	(5,23)
	(23,5)
	(5,56)
	(56,5)
	(5,60)
	(60,5)
	(5,63)
	(63,5)
	(5,68)
	(68,5)
	(5,72)
	(72,5)
	(5,75)
	(75,5)
	(6,7)
	(7,6)
	(6,11)
	(11,6)
	(6,15)
	(15,6)
	(6,19)
	(19,6)
	(6,23)
	(23,6)
	(6,55)
	(55,6)
	(6,59)
	(59,6)
	(6,63)
	(63,6)
	(6,67)
	(67,6)
	(6,71)
	(71,6)
	(6,75)
	(75,6)
	(7,9)
	(9,7)
	(7,12)
	(12,7)
	(7,18)
	(18,7)
	(7,21)
	(21,7)
	(7,24)
	(24,7)
	(7,58)
	(58,7)
	(7,61)
	(61,7)
	(7,64)
	(64,7)
	(7,70)
	(70,7)
	(7,73)
	(73,7)
	(7,76)
	(76,7)
	(8,9)
	(9,8)
	(8,12)
	(12,8)
	(8,17)
	(17,8)
	(8,21)
	(21,8)
	(8,24)
	(24,8)
	(8,57)
	(57,8)
	(8,61)
	(61,8)
	(8,64)
	(64,8)
	(8,69)
	(69,8)
	(8,73)
	(73,8)
	(8,76)
	(76,8)
	(9,10)
	(10,9)
	(9,11)
	(11,9)
	(9,12)
	(12,9)
	(9,19)
	(19,9)
	(9,20)
	(20,9)
	(9,22)
	(22,9)
	(9,23)
	(23,9)
	(9,24)
	(24,9)
	(9,59)
	(59,9)
	(9,60)
	(60,9)
	(9,62)
	(62,9)
	(9,63)
	(63,9)
	(9,64)
	(64,9)
	(9,71)
	(71,9)
	(9,72)
	(72,9)
	(9,74)
	(74,9)
	(9,75)
	(75,9)
	(9,76)
	(76,9)
	(10,11)
	(11,10)
	(10,12)
	(12,10)
	(10,15)
	(15,10)
	(10,16)
	(16,10)
	(10,21)
	(21,10)
	(10,23)
	(23,10)
	(10,24)
	(24,10)
	(10,55)
	(55,10)
	(10,56)
	(56,10)
	(10,61)
	(61,10)
	(10,63)
	(63,10)
	(10,64)
	(64,10)
	(10,67)
	(67,10)
	(10,68)
	(68,10)
	(10,73)
	(73,10)
	(10,75)
	(75,10)
	(10,76)
	(76,10)
	(11,12)
	(12,11)
	(11,17)
	(17,11)
	(11,18)
	(18,11)
	(11,21)
	(21,11)
	(11,22)
	(22,11)
	(11,24)
	(24,11)
	(11,57)
	(57,11)
	(11,58)
	(58,11)
	(11,61)
	(61,11)
	(11,62)
	(62,11)
	(11,64)
	(64,11)
	(11,69)
	(69,11)
	(11,70)
	(70,11)
	(11,73)
	(73,11)
	(11,74)
	(74,11)
	(11,76)
	(76,11)
	(12,19)
	(19,12)
	(12,20)
	(20,12)
	(12,21)
	(21,12)
	(12,22)
	(22,12)
	(12,23)
	(23,12)
	(12,59)
	(59,12)
	(12,60)
	(60,12)
	(12,61)
	(61,12)
	(12,62)
	(62,12)
	(12,63)
	(63,12)
	(12,71)
	(71,12)
	(12,72)
	(72,12)
	(12,73)
	(73,12)
	(12,74)
	(74,12)
	(12,75)
	(75,12)
	(13,26)
	(26,13)
	(13,28)
	(28,13)
	(13,50)
	(50,13)
	(13,54)
	(54,13)
	(13,56)
	(56,13)
	(13,78)
	(78,13)
	(13,80)
	(80,13)
	(13,102)
	(102,13)
	(14,25)
	(25,14)
	(14,27)
	(27,14)
	(14,50)
	(50,14)
	(14,53)
	(53,14)
	(14,55)
	(55,14)
	(14,77)
	(77,14)
	(14,79)
	(79,14)
	(14,102)
	(102,14)
	(15,26)
	(26,15)
	(15,30)
	(30,15)
	(15,34)
	(34,15)
	(15,50)
	(50,15)
	(15,54)
	(54,15)
	(15,58)
	(58,15)
	(15,62)
	(62,15)
	(15,78)
	(78,15)
	(15,82)
	(82,15)
	(15,86)
	(86,15)
	(15,102)
	(102,15)
	(16,25)
	(25,16)
	(16,29)
	(29,16)
	(16,34)
	(34,16)
	(16,50)
	(50,16)
	(16,53)
	(53,16)
	(16,57)
	(57,16)
	(16,62)
	(62,16)
	(16,77)
	(77,16)
	(16,81)
	(81,16)
	(16,86)
	(86,16)
	(16,102)
	(102,16)
	(17,28)
	(28,17)
	(17,32)
	(32,17)
	(17,35)
	(35,17)
	(17,50)
	(50,17)
	(17,56)
	(56,17)
	(17,60)
	(60,17)
	(17,63)
	(63,17)
	(17,80)
	(80,17)
	(17,84)
	(84,17)
	(17,87)
	(87,17)
	(17,102)
	(102,17)
	(18,27)
	(27,18)
	(18,31)
	(31,18)
	(18,35)
	(35,18)
	(18,50)
	(50,18)
	(18,55)
	(55,18)
	(18,59)
	(59,18)
	(18,63)
	(63,18)
	(18,79)
	(79,18)
	(18,83)
	(83,18)
	(18,87)
	(87,18)
	(18,102)
	(102,18)
	(19,30)
	(30,19)
	(19,33)
	(33,19)
	(19,36)
	(36,19)
	(19,50)
	(50,19)
	(19,58)
	(58,19)
	(19,61)
	(61,19)
	(19,64)
	(64,19)
	(19,82)
	(82,19)
	(19,85)
	(85,19)
	(19,88)
	(88,19)
	(19,102)
	(102,19)
	(20,29)
	(29,20)
	(20,33)
	(33,20)
	(20,36)
	(36,20)
	(20,50)
	(50,20)
	(20,57)
	(57,20)
	(20,61)
	(61,20)
	(20,64)
	(64,20)
	(20,81)
	(81,20)
	(20,85)
	(85,20)
	(20,88)
	(88,20)
	(20,102)
	(102,20)
	(21,31)
	(31,21)
	(21,32)
	(32,21)
	(21,34)
	(34,21)
	(21,35)
	(35,21)
	(21,36)
	(36,21)
	(21,50)
	(50,21)
	(21,59)
	(59,21)
	(21,60)
	(60,21)
	(21,62)
	(62,21)
	(21,63)
	(63,21)
	(21,64)
	(64,21)
	(21,83)
	(83,21)
	(21,84)
	(84,21)
	(21,86)
	(86,21)
	(21,87)
	(87,21)
	(21,88)
	(88,21)
	(21,102)
	(102,21)
	(22,27)
	(27,22)
	(22,28)
	(28,22)
	(22,33)
	(33,22)
	(22,35)
	(35,22)
	(22,36)
	(36,22)
	(22,50)
	(50,22)
	(22,55)
	(55,22)
	(22,56)
	(56,22)
	(22,61)
	(61,22)
	(22,63)
	(63,22)
	(22,64)
	(64,22)
	(22,79)
	(79,22)
	(22,80)
	(80,22)
	(22,85)
	(85,22)
	(22,87)
	(87,22)
	(22,88)
	(88,22)
	(22,102)
	(102,22)
	(23,29)
	(29,23)
	(23,30)
	(30,23)
	(23,33)
	(33,23)
	(23,34)
	(34,23)
	(23,36)
	(36,23)
	(23,50)
	(50,23)
	(23,57)
	(57,23)
	(23,58)
	(58,23)
	(23,61)
	(61,23)
	(23,62)
	(62,23)
	(23,64)
	(64,23)
	(23,81)
	(81,23)
	(23,82)
	(82,23)
	(23,85)
	(85,23)
	(23,86)
	(86,23)
	(23,88)
	(88,23)
	(23,102)
	(102,23)
	(24,31)
	(31,24)
	(24,32)
	(32,24)
	(24,33)
	(33,24)
	(24,34)
	(34,24)
	(24,35)
	(35,24)
	(24,50)
	(50,24)
	(24,59)
	(59,24)
	(24,60)
	(60,24)
	(24,61)
	(61,24)
	(24,62)
	(62,24)
	(24,63)
	(63,24)
	(24,83)
	(83,24)
	(24,84)
	(84,24)
	(24,85)
	(85,24)
	(24,86)
	(86,24)
	(24,87)
	(87,24)
	(24,102)
	(102,24)
	(25,38)
	(38,25)
	(25,40)
	(40,25)
	(25,51)
	(51,25)
	(25,66)
	(66,25)
	(25,68)
	(68,25)
	(25,90)
	(90,25)
	(25,92)
	(92,25)
	(25,103)
	(103,25)
	(26,37)
	(37,26)
	(26,39)
	(39,26)
	(26,51)
	(51,26)
	(26,65)
	(65,26)
	(26,67)
	(67,26)
	(26,89)
	(89,26)
	(26,91)
	(91,26)
	(26,103)
	(103,26)
	(27,38)
	(38,27)
	(27,42)
	(42,27)
	(27,46)
	(46,27)
	(27,51)
	(51,27)
	(27,66)
	(66,27)
	(27,70)
	(70,27)
	(27,74)
	(74,27)
	(27,90)
	(90,27)
	(27,94)
	(94,27)
	(27,98)
	(98,27)
	(27,103)
	(103,27)
	(28,37)
	(37,28)
	(28,41)
	(41,28)
	(28,46)
	(46,28)
	(28,51)
	(51,28)
	(28,65)
	(65,28)
	(28,69)
	(69,28)
	(28,74)
	(74,28)
	(28,89)
	(89,28)
	(28,93)
	(93,28)
	(28,98)
	(98,28)
	(28,103)
	(103,28)
	(29,40)
	(40,29)
	(29,44)
	(44,29)
	(29,47)
	(47,29)
	(29,51)
	(51,29)
	(29,68)
	(68,29)
	(29,72)
	(72,29)
	(29,75)
	(75,29)
	(29,92)
	(92,29)
	(29,96)
	(96,29)
	(29,99)
	(99,29)
	(29,103)
	(103,29)
	(30,39)
	(39,30)
	(30,43)
	(43,30)
	(30,47)
	(47,30)
	(30,51)
	(51,30)
	(30,67)
	(67,30)
	(30,71)
	(71,30)
	(30,75)
	(75,30)
	(30,91)
	(91,30)
	(30,95)
	(95,30)
	(30,99)
	(99,30)
	(30,103)
	(103,30)
	(31,42)
	(42,31)
	(31,45)
	(45,31)
	(31,48)
	(48,31)
	(31,51)
	(51,31)
	(31,70)
	(70,31)
	(31,73)
	(73,31)
	(31,76)
	(76,31)
	(31,94)
	(94,31)
	(31,97)
	(97,31)
	(31,100)
	(100,31)
	(31,103)
	(103,31)
	(32,41)
	(41,32)
	(32,45)
	(45,32)
	(32,48)
	(48,32)
	(32,51)
	(51,32)
	(32,69)
	(69,32)
	(32,73)
	(73,32)
	(32,76)
	(76,32)
	(32,93)
	(93,32)
	(32,97)
	(97,32)
	(32,100)
	(100,32)
	(32,103)
	(103,32)
	(33,43)
	(43,33)
	(33,44)
	(44,33)
	(33,46)
	(46,33)
	(33,47)
	(47,33)
	(33,48)
	(48,33)
	(33,51)
	(51,33)
	(33,71)
	(71,33)
	(33,72)
	(72,33)
	(33,74)
	(74,33)
	(33,75)
	(75,33)
	(33,76)
	(76,33)
	(33,95)
	(95,33)
	(33,96)
	(96,33)
	(33,98)
	(98,33)
	(33,99)
	(99,33)
	(33,100)
	(100,33)
	(33,103)
	(103,33)
	(34,39)
	(39,34)
	(34,40)
	(40,34)
	(34,45)
	(45,34)
	(34,47)
	(47,34)
	(34,48)
	(48,34)
	(34,51)
	(51,34)
	(34,67)
	(67,34)
	(34,68)
	(68,34)
	(34,73)
	(73,34)
	(34,75)
	(75,34)
	(34,76)
	(76,34)
	(34,91)
	(91,34)
	(34,92)
	(92,34)
	(34,97)
	(97,34)
	(34,99)
	(99,34)
	(34,100)
	(100,34)
	(34,103)
	(103,34)
	(35,41)
	(41,35)
	(35,42)
	(42,35)
	(35,45)
	(45,35)
	(35,46)
	(46,35)
	(35,48)
	(48,35)
	(35,51)
	(51,35)
	(35,69)
	(69,35)
	(35,70)
	(70,35)
	(35,73)
	(73,35)
	(35,74)
	(74,35)
	(35,76)
	(76,35)
	(35,93)
	(93,35)
	(35,94)
	(94,35)
	(35,97)
	(97,35)
	(35,98)
	(98,35)
	(35,100)
	(100,35)
	(35,103)
	(103,35)
	(36,43)
	(43,36)
	(36,44)
	(44,36)
	(36,45)
	(45,36)
	(36,46)
	(46,36)
	(36,47)
	(47,36)
	(36,51)
	(51,36)
	(36,71)
	(71,36)
	(36,72)
	(72,36)
	(36,73)
	(73,36)
	(36,74)
	(74,36)
	(36,75)
	(75,36)
	(36,95)
	(95,36)
	(36,96)
	(96,36)
	(36,97)
	(97,36)
	(36,98)
	(98,36)
	(36,99)
	(99,36)
	(36,103)
	(103,36)
	(37,49)
	(49,37)
	(37,52)
	(52,37)
	(37,78)
	(78,37)
	(37,80)
	(80,37)
	(37,101)
	(101,37)
	(37,104)
	(104,37)
	(38,49)
	(49,38)
	(38,52)
	(52,38)
	(38,77)
	(77,38)
	(38,79)
	(79,38)
	(38,101)
	(101,38)
	(38,104)
	(104,38)
	(39,49)
	(49,39)
	(39,52)
	(52,39)
	(39,78)
	(78,39)
	(39,82)
	(82,39)
	(39,86)
	(86,39)
	(39,101)
	(101,39)
	(39,104)
	(104,39)
	(40,49)
	(49,40)
	(40,52)
	(52,40)
	(40,77)
	(77,40)
	(40,81)
	(81,40)
	(40,86)
	(86,40)
	(40,101)
	(101,40)
	(40,104)
	(104,40)
	(41,49)
	(49,41)
	(41,52)
	(52,41)
	(41,80)
	(80,41)
	(41,84)
	(84,41)
	(41,87)
	(87,41)
	(41,101)
	(101,41)
	(41,104)
	(104,41)
	(42,49)
	(49,42)
	(42,52)
	(52,42)
	(42,79)
	(79,42)
	(42,83)
	(83,42)
	(42,87)
	(87,42)
	(42,101)
	(101,42)
	(42,104)
	(104,42)
	(43,49)
	(49,43)
	(43,52)
	(52,43)
	(43,82)
	(82,43)
	(43,85)
	(85,43)
	(43,88)
	(88,43)
	(43,101)
	(101,43)
	(43,104)
	(104,43)
	(44,49)
	(49,44)
	(44,52)
	(52,44)
	(44,81)
	(81,44)
	(44,85)
	(85,44)
	(44,88)
	(88,44)
	(44,101)
	(101,44)
	(44,104)
	(104,44)
	(45,49)
	(49,45)
	(45,52)
	(52,45)
	(45,83)
	(83,45)
	(45,84)
	(84,45)
	(45,86)
	(86,45)
	(45,87)
	(87,45)
	(45,88)
	(88,45)
	(45,101)
	(101,45)
	(45,104)
	(104,45)
	(46,49)
	(49,46)
	(46,52)
	(52,46)
	(46,79)
	(79,46)
	(46,80)
	(80,46)
	(46,85)
	(85,46)
	(46,87)
	(87,46)
	(46,88)
	(88,46)
	(46,101)
	(101,46)
	(46,104)
	(104,46)
	(47,49)
	(49,47)
	(47,52)
	(52,47)
	(47,81)
	(81,47)
	(47,82)
	(82,47)
	(47,85)
	(85,47)
	(47,86)
	(86,47)
	(47,88)
	(88,47)
	(47,101)
	(101,47)
	(47,104)
	(104,47)
	(48,49)
	(49,48)
	(48,52)
	(52,48)
	(48,83)
	(83,48)
	(48,84)
	(84,48)
	(48,85)
	(85,48)
	(48,86)
	(86,48)
	(48,87)
	(87,48)
	(48,101)
	(101,48)
	(48,104)
	(104,48)
	(49,50)
	(50,49)
	(49,51)
	(51,49)
	(49,52)
	(52,49)
	(49,89)
	(89,49)
	(49,90)
	(90,49)
	(49,91)
	(91,49)
	(49,92)
	(92,49)
	(49,93)
	(93,49)
	(49,94)
	(94,49)
	(49,95)
	(95,49)
	(49,96)
	(96,49)
	(49,97)
	(97,49)
	(49,98)
	(98,49)
	(49,99)
	(99,49)
	(49,100)
	(100,49)
	(49,102)
	(102,49)
	(49,103)
	(103,49)
	(49,104)
	(104,49)
	(50,51)
	(51,50)
	(50,52)
	(52,50)
	(50,65)
	(65,50)
	(50,66)
	(66,50)
	(50,67)
	(67,50)
	(50,68)
	(68,50)
	(50,69)
	(69,50)
	(50,70)
	(70,50)
	(50,71)
	(71,50)
	(50,72)
	(72,50)
	(50,73)
	(73,50)
	(50,74)
	(74,50)
	(50,75)
	(75,50)
	(50,76)
	(76,50)
	(50,101)
	(101,50)
	(50,103)
	(103,50)
	(50,104)
	(104,50)
	(51,52)
	(52,51)
	(51,77)
	(77,51)
	(51,78)
	(78,51)
	(51,79)
	(79,51)
	(51,80)
	(80,51)
	(51,81)
	(81,51)
	(51,82)
	(82,51)
	(51,83)
	(83,51)
	(51,84)
	(84,51)
	(51,85)
	(85,51)
	(51,86)
	(86,51)
	(51,87)
	(87,51)
	(51,88)
	(88,51)
	(51,101)
	(101,51)
	(51,102)
	(102,51)
	(51,104)
	(104,51)
	(52,89)
	(89,52)
	(52,90)
	(90,52)
	(52,91)
	(91,52)
	(52,92)
	(92,52)
	(52,93)
	(93,52)
	(52,94)
	(94,52)
	(52,95)
	(95,52)
	(52,96)
	(96,52)
	(52,97)
	(97,52)
	(52,98)
	(98,52)
	(52,99)
	(99,52)
	(52,100)
	(100,52)
	(52,101)
	(101,52)
	(52,102)
	(102,52)
	(52,103)
	(103,52)
	(53,106)
	(106,53)
	(53,108)
	(108,53)
	(53,118)
	(118,53)
	(53,120)
	(120,53)
	(53,210)
	(210,53)
	(54,105)
	(105,54)
	(54,107)
	(107,54)
	(54,117)
	(117,54)
	(54,119)
	(119,54)
	(54,210)
	(210,54)
	(55,106)
	(106,55)
	(55,110)
	(110,55)
	(55,114)
	(114,55)
	(55,118)
	(118,55)
	(55,122)
	(122,55)
	(55,126)
	(126,55)
	(55,210)
	(210,55)
	(56,105)
	(105,56)
	(56,109)
	(109,56)
	(56,114)
	(114,56)
	(56,117)
	(117,56)
	(56,121)
	(121,56)
	(56,126)
	(126,56)
	(56,210)
	(210,56)
	(57,108)
	(108,57)
	(57,112)
	(112,57)
	(57,115)
	(115,57)
	(57,120)
	(120,57)
	(57,124)
	(124,57)
	(57,127)
	(127,57)
	(57,210)
	(210,57)
	(58,107)
	(107,58)
	(58,111)
	(111,58)
	(58,115)
	(115,58)
	(58,119)
	(119,58)
	(58,123)
	(123,58)
	(58,127)
	(127,58)
	(58,210)
	(210,58)
	(59,110)
	(110,59)
	(59,113)
	(113,59)
	(59,116)
	(116,59)
	(59,122)
	(122,59)
	(59,125)
	(125,59)
	(59,128)
	(128,59)
	(59,210)
	(210,59)
	(60,109)
	(109,60)
	(60,113)
	(113,60)
	(60,116)
	(116,60)
	(60,121)
	(121,60)
	(60,125)
	(125,60)
	(60,128)
	(128,60)
	(60,210)
	(210,60)
	(61,111)
	(111,61)
	(61,112)
	(112,61)
	(61,114)
	(114,61)
	(61,115)
	(115,61)
	(61,116)
	(116,61)
	(61,123)
	(123,61)
	(61,124)
	(124,61)
	(61,126)
	(126,61)
	(61,127)
	(127,61)
	(61,128)
	(128,61)
	(61,210)
	(210,61)
	(62,107)
	(107,62)
	(62,108)
	(108,62)
	(62,113)
	(113,62)
	(62,115)
	(115,62)
	(62,116)
	(116,62)
	(62,119)
	(119,62)
	(62,120)
	(120,62)
	(62,125)
	(125,62)
	(62,127)
	(127,62)
	(62,128)
	(128,62)
	(62,210)
	(210,62)
	(63,109)
	(109,63)
	(63,110)
	(110,63)
	(63,113)
	(113,63)
	(63,114)
	(114,63)
	(63,116)
	(116,63)
	(63,121)
	(121,63)
	(63,122)
	(122,63)
	(63,125)
	(125,63)
	(63,126)
	(126,63)
	(63,128)
	(128,63)
	(63,210)
	(210,63)
	(64,111)
	(111,64)
	(64,112)
	(112,64)
	(64,113)
	(113,64)
	(64,114)
	(114,64)
	(64,115)
	(115,64)
	(64,123)
	(123,64)
	(64,124)
	(124,64)
	(64,125)
	(125,64)
	(64,126)
	(126,64)
	(64,127)
	(127,64)
	(64,210)
	(210,64)
	(65,106)
	(106,65)
	(65,108)
	(108,65)
	(65,130)
	(130,65)
	(65,132)
	(132,65)
	(65,154)
	(154,65)
	(65,210)
	(210,65)
	(66,105)
	(105,66)
	(66,107)
	(107,66)
	(66,129)
	(129,66)
	(66,131)
	(131,66)
	(66,154)
	(154,66)
	(66,210)
	(210,66)
	(67,106)
	(106,67)
	(67,110)
	(110,67)
	(67,114)
	(114,67)
	(67,130)
	(130,67)
	(67,134)
	(134,67)
	(67,138)
	(138,67)
	(67,154)
	(154,67)
	(67,210)
	(210,67)
	(68,105)
	(105,68)
	(68,109)
	(109,68)
	(68,114)
	(114,68)
	(68,129)
	(129,68)
	(68,133)
	(133,68)
	(68,138)
	(138,68)
	(68,154)
	(154,68)
	(68,210)
	(210,68)
	(69,108)
	(108,69)
	(69,112)
	(112,69)
	(69,115)
	(115,69)
	(69,132)
	(132,69)
	(69,136)
	(136,69)
	(69,139)
	(139,69)
	(69,154)
	(154,69)
	(69,210)
	(210,69)
	(70,107)
	(107,70)
	(70,111)
	(111,70)
	(70,115)
	(115,70)
	(70,131)
	(131,70)
	(70,135)
	(135,70)
	(70,139)
	(139,70)
	(70,154)
	(154,70)
	(70,210)
	(210,70)
	(71,110)
	(110,71)
	(71,113)
	(113,71)
	(71,116)
	(116,71)
	(71,134)
	(134,71)
	(71,137)
	(137,71)
	(71,140)
	(140,71)
	(71,154)
	(154,71)
	(71,210)
	(210,71)
	(72,109)
	(109,72)
	(72,113)
	(113,72)
	(72,116)
	(116,72)
	(72,133)
	(133,72)
	(72,137)
	(137,72)
	(72,140)
	(140,72)
	(72,154)
	(154,72)
	(72,210)
	(210,72)
	(73,111)
	(111,73)
	(73,112)
	(112,73)
	(73,114)
	(114,73)
	(73,115)
	(115,73)
	(73,116)
	(116,73)
	(73,135)
	(135,73)
	(73,136)
	(136,73)
	(73,138)
	(138,73)
	(73,139)
	(139,73)
	(73,140)
	(140,73)
	(73,154)
	(154,73)
	(73,210)
	(210,73)
	(74,107)
	(107,74)
	(74,108)
	(108,74)
	(74,113)
	(113,74)
	(74,115)
	(115,74)
	(74,116)
	(116,74)
	(74,131)
	(131,74)
	(74,132)
	(132,74)
	(74,137)
	(137,74)
	(74,139)
	(139,74)
	(74,140)
	(140,74)
	(74,154)
	(154,74)
	(74,210)
	(210,74)
	(75,109)
	(109,75)
	(75,110)
	(110,75)
	(75,113)
	(113,75)
	(75,114)
	(114,75)
	(75,116)
	(116,75)
	(75,133)
	(133,75)
	(75,134)
	(134,75)
	(75,137)
	(137,75)
	(75,138)
	(138,75)
	(75,140)
	(140,75)
	(75,154)
	(154,75)
	(75,210)
	(210,75)
	(76,111)
	(111,76)
	(76,112)
	(112,76)
	(76,113)
	(113,76)
	(76,114)
	(114,76)
	(76,115)
	(115,76)
	(76,135)
	(135,76)
	(76,136)
	(136,76)
	(76,137)
	(137,76)
	(76,138)
	(138,76)
	(76,139)
	(139,76)
	(76,154)
	(154,76)
	(76,210)
	(210,76)
	(77,118)
	(118,77)
	(77,120)
	(120,77)
	(77,142)
	(142,77)
	(77,144)
	(144,77)
	(77,155)
	(155,77)
	(77,210)
	(210,77)
	(78,117)
	(117,78)
	(78,119)
	(119,78)
	(78,141)
	(141,78)
	(78,143)
	(143,78)
	(78,155)
	(155,78)
	(78,210)
	(210,78)
	(79,118)
	(118,79)
	(79,122)
	(122,79)
	(79,126)
	(126,79)
	(79,142)
	(142,79)
	(79,146)
	(146,79)
	(79,150)
	(150,79)
	(79,155)
	(155,79)
	(79,210)
	(210,79)
	(80,117)
	(117,80)
	(80,121)
	(121,80)
	(80,126)
	(126,80)
	(80,141)
	(141,80)
	(80,145)
	(145,80)
	(80,150)
	(150,80)
	(80,155)
	(155,80)
	(80,210)
	(210,80)
	(81,120)
	(120,81)
	(81,124)
	(124,81)
	(81,127)
	(127,81)
	(81,144)
	(144,81)
	(81,148)
	(148,81)
	(81,151)
	(151,81)
	(81,155)
	(155,81)
	(81,210)
	(210,81)
	(82,119)
	(119,82)
	(82,123)
	(123,82)
	(82,127)
	(127,82)
	(82,143)
	(143,82)
	(82,147)
	(147,82)
	(82,151)
	(151,82)
	(82,155)
	(155,82)
	(82,210)
	(210,82)
	(83,122)
	(122,83)
	(83,125)
	(125,83)
	(83,128)
	(128,83)
	(83,146)
	(146,83)
	(83,149)
	(149,83)
	(83,152)
	(152,83)
	(83,155)
	(155,83)
	(83,210)
	(210,83)
	(84,121)
	(121,84)
	(84,125)
	(125,84)
	(84,128)
	(128,84)
	(84,145)
	(145,84)
	(84,149)
	(149,84)
	(84,152)
	(152,84)
	(84,155)
	(155,84)
	(84,210)
	(210,84)
	(85,123)
	(123,85)
	(85,124)
	(124,85)
	(85,126)
	(126,85)
	(85,127)
	(127,85)
	(85,128)
	(128,85)
	(85,147)
	(147,85)
	(85,148)
	(148,85)
	(85,150)
	(150,85)
	(85,151)
	(151,85)
	(85,152)
	(152,85)
	(85,155)
	(155,85)
	(85,210)
	(210,85)
	(86,119)
	(119,86)
	(86,120)
	(120,86)
	(86,125)
	(125,86)
	(86,127)
	(127,86)
	(86,128)
	(128,86)
	(86,143)
	(143,86)
	(86,144)
	(144,86)
	(86,149)
	(149,86)
	(86,151)
	(151,86)
	(86,152)
	(152,86)
	(86,155)
	(155,86)
	(86,210)
	(210,86)
	(87,121)
	(121,87)
	(87,122)
	(122,87)
	(87,125)
	(125,87)
	(87,126)
	(126,87)
	(87,128)
	(128,87)
	(87,145)
	(145,87)
	(87,146)
	(146,87)
	(87,149)
	(149,87)
	(87,150)
	(150,87)
	(87,152)
	(152,87)
	(87,155)
	(155,87)
	(87,210)
	(210,87)
	(88,123)
	(123,88)
	(88,124)
	(124,88)
	(88,125)
	(125,88)
	(88,126)
	(126,88)
	(88,127)
	(127,88)
	(88,147)
	(147,88)
	(88,148)
	(148,88)
	(88,149)
	(149,88)
	(88,150)
	(150,88)
	(88,151)
	(151,88)
	(88,155)
	(155,88)
	(88,210)
	(210,88)
	(89,130)
	(130,89)
	(89,132)
	(132,89)
	(89,153)
	(153,89)
	(89,156)
	(156,89)
	(89,210)
	(210,89)
	(90,129)
	(129,90)
	(90,131)
	(131,90)
	(90,153)
	(153,90)
	(90,156)
	(156,90)
	(90,210)
	(210,90)
	(91,130)
	(130,91)
	(91,134)
	(134,91)
	(91,138)
	(138,91)
	(91,153)
	(153,91)
	(91,156)
	(156,91)
	(91,210)
	(210,91)
	(92,129)
	(129,92)
	(92,133)
	(133,92)
	(92,138)
	(138,92)
	(92,153)
	(153,92)
	(92,156)
	(156,92)
	(92,210)
	(210,92)
	(93,132)
	(132,93)
	(93,136)
	(136,93)
	(93,139)
	(139,93)
	(93,153)
	(153,93)
	(93,156)
	(156,93)
	(93,210)
	(210,93)
	(94,131)
	(131,94)
	(94,135)
	(135,94)
	(94,139)
	(139,94)
	(94,153)
	(153,94)
	(94,156)
	(156,94)
	(94,210)
	(210,94)
	(95,134)
	(134,95)
	(95,137)
	(137,95)
	(95,140)
	(140,95)
	(95,153)
	(153,95)
	(95,156)
	(156,95)
	(95,210)
	(210,95)
	(96,133)
	(133,96)
	(96,137)
	(137,96)
	(96,140)
	(140,96)
	(96,153)
	(153,96)
	(96,156)
	(156,96)
	(96,210)
	(210,96)
	(97,135)
	(135,97)
	(97,136)
	(136,97)
	(97,138)
	(138,97)
	(97,139)
	(139,97)
	(97,140)
	(140,97)
	(97,153)
	(153,97)
	(97,156)
	(156,97)
	(97,210)
	(210,97)
	(98,131)
	(131,98)
	(98,132)
	(132,98)
	(98,137)
	(137,98)
	(98,139)
	(139,98)
	(98,140)
	(140,98)
	(98,153)
	(153,98)
	(98,156)
	(156,98)
	(98,210)
	(210,98)
	(99,133)
	(133,99)
	(99,134)
	(134,99)
	(99,137)
	(137,99)
	(99,138)
	(138,99)
	(99,140)
	(140,99)
	(99,153)
	(153,99)
	(99,156)
	(156,99)
	(99,210)
	(210,99)
	(100,135)
	(135,100)
	(100,136)
	(136,100)
	(100,137)
	(137,100)
	(100,138)
	(138,100)
	(100,139)
	(139,100)
	(100,153)
	(153,100)
	(100,156)
	(156,100)
	(100,210)
	(210,100)
	(101,141)
	(141,101)
	(101,142)
	(142,101)
	(101,143)
	(143,101)
	(101,144)
	(144,101)
	(101,145)
	(145,101)
	(101,146)
	(146,101)
	(101,147)
	(147,101)
	(101,148)
	(148,101)
	(101,149)
	(149,101)
	(101,150)
	(150,101)
	(101,151)
	(151,101)
	(101,152)
	(152,101)
	(101,154)
	(154,101)
	(101,155)
	(155,101)
	(101,156)
	(156,101)
	(101,210)
	(210,101)
	(102,117)
	(117,102)
	(102,118)
	(118,102)
	(102,119)
	(119,102)
	(102,120)
	(120,102)
	(102,121)
	(121,102)
	(102,122)
	(122,102)
	(102,123)
	(123,102)
	(102,124)
	(124,102)
	(102,125)
	(125,102)
	(102,126)
	(126,102)
	(102,127)
	(127,102)
	(102,128)
	(128,102)
	(102,153)
	(153,102)
	(102,155)
	(155,102)
	(102,156)
	(156,102)
	(102,210)
	(210,102)
	(103,129)
	(129,103)
	(103,130)
	(130,103)
	(103,131)
	(131,103)
	(103,132)
	(132,103)
	(103,133)
	(133,103)
	(103,134)
	(134,103)
	(103,135)
	(135,103)
	(103,136)
	(136,103)
	(103,137)
	(137,103)
	(103,138)
	(138,103)
	(103,139)
	(139,103)
	(103,140)
	(140,103)
	(103,153)
	(153,103)
	(103,154)
	(154,103)
	(103,156)
	(156,103)
	(103,210)
	(210,103)
	(104,141)
	(141,104)
	(104,142)
	(142,104)
	(104,143)
	(143,104)
	(104,144)
	(144,104)
	(104,145)
	(145,104)
	(104,146)
	(146,104)
	(104,147)
	(147,104)
	(104,148)
	(148,104)
	(104,149)
	(149,104)
	(104,150)
	(150,104)
	(104,151)
	(151,104)
	(104,152)
	(152,104)
	(104,153)
	(153,104)
	(104,154)
	(154,104)
	(104,155)
	(155,104)
	(104,210)
	(210,104)
	(105,158)
	(158,105)
	(105,160)
	(160,105)
	(105,170)
	(170,105)
	(105,172)
	(172,105)
	(105,211)
	(211,105)
	(106,157)
	(157,106)
	(106,159)
	(159,106)
	(106,169)
	(169,106)
	(106,171)
	(171,106)
	(106,211)
	(211,106)
	(107,158)
	(158,107)
	(107,162)
	(162,107)
	(107,166)
	(166,107)
	(107,170)
	(170,107)
	(107,174)
	(174,107)
	(107,178)
	(178,107)
	(107,211)
	(211,107)
	(108,157)
	(157,108)
	(108,161)
	(161,108)
	(108,166)
	(166,108)
	(108,169)
	(169,108)
	(108,173)
	(173,108)
	(108,178)
	(178,108)
	(108,211)
	(211,108)
	(109,160)
	(160,109)
	(109,164)
	(164,109)
	(109,167)
	(167,109)
	(109,172)
	(172,109)
	(109,176)
	(176,109)
	(109,179)
	(179,109)
	(109,211)
	(211,109)
	(110,159)
	(159,110)
	(110,163)
	(163,110)
	(110,167)
	(167,110)
	(110,171)
	(171,110)
	(110,175)
	(175,110)
	(110,179)
	(179,110)
	(110,211)
	(211,110)
	(111,162)
	(162,111)
	(111,165)
	(165,111)
	(111,168)
	(168,111)
	(111,174)
	(174,111)
	(111,177)
	(177,111)
	(111,180)
	(180,111)
	(111,211)
	(211,111)
	(112,161)
	(161,112)
	(112,165)
	(165,112)
	(112,168)
	(168,112)
	(112,173)
	(173,112)
	(112,177)
	(177,112)
	(112,180)
	(180,112)
	(112,211)
	(211,112)
	(113,163)
	(163,113)
	(113,164)
	(164,113)
	(113,166)
	(166,113)
	(113,167)
	(167,113)
	(113,168)
	(168,113)
	(113,175)
	(175,113)
	(113,176)
	(176,113)
	(113,178)
	(178,113)
	(113,179)
	(179,113)
	(113,180)
	(180,113)
	(113,211)
	(211,113)
	(114,159)
	(159,114)
	(114,160)
	(160,114)
	(114,165)
	(165,114)
	(114,167)
	(167,114)
	(114,168)
	(168,114)
	(114,171)
	(171,114)
	(114,172)
	(172,114)
	(114,177)
	(177,114)
	(114,179)
	(179,114)
	(114,180)
	(180,114)
	(114,211)
	(211,114)
	(115,161)
	(161,115)
	(115,162)
	(162,115)
	(115,165)
	(165,115)
	(115,166)
	(166,115)
	(115,168)
	(168,115)
	(115,173)
	(173,115)
	(115,174)
	(174,115)
	(115,177)
	(177,115)
	(115,178)
	(178,115)
	(115,180)
	(180,115)
	(115,211)
	(211,115)
	(116,163)
	(163,116)
	(116,164)
	(164,116)
	(116,165)
	(165,116)
	(116,166)
	(166,116)
	(116,167)
	(167,116)
	(116,175)
	(175,116)
	(116,176)
	(176,116)
	(116,177)
	(177,116)
	(116,178)
	(178,116)
	(116,179)
	(179,116)
	(116,211)
	(211,116)
	(117,158)
	(158,117)
	(117,160)
	(160,117)
	(117,182)
	(182,117)
	(117,184)
	(184,117)
	(117,206)
	(206,117)
	(117,211)
	(211,117)
	(118,157)
	(157,118)
	(118,159)
	(159,118)
	(118,181)
	(181,118)
	(118,183)
	(183,118)
	(118,206)
	(206,118)
	(118,211)
	(211,118)
	(119,158)
	(158,119)
	(119,162)
	(162,119)
	(119,166)
	(166,119)
	(119,182)
	(182,119)
	(119,186)
	(186,119)
	(119,190)
	(190,119)
	(119,206)
	(206,119)
	(119,211)
	(211,119)
	(120,157)
	(157,120)
	(120,161)
	(161,120)
	(120,166)
	(166,120)
	(120,181)
	(181,120)
	(120,185)
	(185,120)
	(120,190)
	(190,120)
	(120,206)
	(206,120)
	(120,211)
	(211,120)
	(121,160)
	(160,121)
	(121,164)
	(164,121)
	(121,167)
	(167,121)
	(121,184)
	(184,121)
	(121,188)
	(188,121)
	(121,191)
	(191,121)
	(121,206)
	(206,121)
	(121,211)
	(211,121)
	(122,159)
	(159,122)
	(122,163)
	(163,122)
	(122,167)
	(167,122)
	(122,183)
	(183,122)
	(122,187)
	(187,122)
	(122,191)
	(191,122)
	(122,206)
	(206,122)
	(122,211)
	(211,122)
	(123,162)
	(162,123)
	(123,165)
	(165,123)
	(123,168)
	(168,123)
	(123,186)
	(186,123)
	(123,189)
	(189,123)
	(123,192)
	(192,123)
	(123,206)
	(206,123)
	(123,211)
	(211,123)
	(124,161)
	(161,124)
	(124,165)
	(165,124)
	(124,168)
	(168,124)
	(124,185)
	(185,124)
	(124,189)
	(189,124)
	(124,192)
	(192,124)
	(124,206)
	(206,124)
	(124,211)
	(211,124)
	(125,163)
	(163,125)
	(125,164)
	(164,125)
	(125,166)
	(166,125)
	(125,167)
	(167,125)
	(125,168)
	(168,125)
	(125,187)
	(187,125)
	(125,188)
	(188,125)
	(125,190)
	(190,125)
	(125,191)
	(191,125)
	(125,192)
	(192,125)
	(125,206)
	(206,125)
	(125,211)
	(211,125)
	(126,159)
	(159,126)
	(126,160)
	(160,126)
	(126,165)
	(165,126)
	(126,167)
	(167,126)
	(126,168)
	(168,126)
	(126,183)
	(183,126)
	(126,184)
	(184,126)
	(126,189)
	(189,126)
	(126,191)
	(191,126)
	(126,192)
	(192,126)
	(126,206)
	(206,126)
	(126,211)
	(211,126)
	(127,161)
	(161,127)
	(127,162)
	(162,127)
	(127,165)
	(165,127)
	(127,166)
	(166,127)
	(127,168)
	(168,127)
	(127,185)
	(185,127)
	(127,186)
	(186,127)
	(127,189)
	(189,127)
	(127,190)
	(190,127)
	(127,192)
	(192,127)
	(127,206)
	(206,127)
	(127,211)
	(211,127)
	(128,163)
	(163,128)
	(128,164)
	(164,128)
	(128,165)
	(165,128)
	(128,166)
	(166,128)
	(128,167)
	(167,128)
	(128,187)
	(187,128)
	(128,188)
	(188,128)
	(128,189)
	(189,128)
	(128,190)
	(190,128)
	(128,191)
	(191,128)
	(128,206)
	(206,128)
	(128,211)
	(211,128)
	(129,170)
	(170,129)
	(129,172)
	(172,129)
	(129,194)
	(194,129)
	(129,196)
	(196,129)
	(129,207)
	(207,129)
	(129,211)
	(211,129)
	(130,169)
	(169,130)
	(130,171)
	(171,130)
	(130,193)
	(193,130)
	(130,195)
	(195,130)
	(130,207)
	(207,130)
	(130,211)
	(211,130)
	(131,170)
	(170,131)
	(131,174)
	(174,131)
	(131,178)
	(178,131)
	(131,194)
	(194,131)
	(131,198)
	(198,131)
	(131,202)
	(202,131)
	(131,207)
	(207,131)
	(131,211)
	(211,131)
	(132,169)
	(169,132)
	(132,173)
	(173,132)
	(132,178)
	(178,132)
	(132,193)
	(193,132)
	(132,197)
	(197,132)
	(132,202)
	(202,132)
	(132,207)
	(207,132)
	(132,211)
	(211,132)
	(133,172)
	(172,133)
	(133,176)
	(176,133)
	(133,179)
	(179,133)
	(133,196)
	(196,133)
	(133,200)
	(200,133)
	(133,203)
	(203,133)
	(133,207)
	(207,133)
	(133,211)
	(211,133)
	(134,171)
	(171,134)
	(134,175)
	(175,134)
	(134,179)
	(179,134)
	(134,195)
	(195,134)
	(134,199)
	(199,134)
	(134,203)
	(203,134)
	(134,207)
	(207,134)
	(134,211)
	(211,134)
	(135,174)
	(174,135)
	(135,177)
	(177,135)
	(135,180)
	(180,135)
	(135,198)
	(198,135)
	(135,201)
	(201,135)
	(135,204)
	(204,135)
	(135,207)
	(207,135)
	(135,211)
	(211,135)
	(136,173)
	(173,136)
	(136,177)
	(177,136)
	(136,180)
	(180,136)
	(136,197)
	(197,136)
	(136,201)
	(201,136)
	(136,204)
	(204,136)
	(136,207)
	(207,136)
	(136,211)
	(211,136)
	(137,175)
	(175,137)
	(137,176)
	(176,137)
	(137,178)
	(178,137)
	(137,179)
	(179,137)
	(137,180)
	(180,137)
	(137,199)
	(199,137)
	(137,200)
	(200,137)
	(137,202)
	(202,137)
	(137,203)
	(203,137)
	(137,204)
	(204,137)
	(137,207)
	(207,137)
	(137,211)
	(211,137)
	(138,171)
	(171,138)
	(138,172)
	(172,138)
	(138,177)
	(177,138)
	(138,179)
	(179,138)
	(138,180)
	(180,138)
	(138,195)
	(195,138)
	(138,196)
	(196,138)
	(138,201)
	(201,138)
	(138,203)
	(203,138)
	(138,204)
	(204,138)
	(138,207)
	(207,138)
	(138,211)
	(211,138)
	(139,173)
	(173,139)
	(139,174)
	(174,139)
	(139,177)
	(177,139)
	(139,178)
	(178,139)
	(139,180)
	(180,139)
	(139,197)
	(197,139)
	(139,198)
	(198,139)
	(139,201)
	(201,139)
	(139,202)
	(202,139)
	(139,204)
	(204,139)
	(139,207)
	(207,139)
	(139,211)
	(211,139)
	(140,175)
	(175,140)
	(140,176)
	(176,140)
	(140,177)
	(177,140)
	(140,178)
	(178,140)
	(140,179)
	(179,140)
	(140,199)
	(199,140)
	(140,200)
	(200,140)
	(140,201)
	(201,140)
	(140,202)
	(202,140)
	(140,203)
	(203,140)
	(140,207)
	(207,140)
	(140,211)
	(211,140)
	(141,182)
	(182,141)
	(141,184)
	(184,141)
	(141,205)
	(205,141)
	(141,208)
	(208,141)
	(141,211)
	(211,141)
	(142,181)
	(181,142)
	(142,183)
	(183,142)
	(142,205)
	(205,142)
	(142,208)
	(208,142)
	(142,211)
	(211,142)
	(143,182)
	(182,143)
	(143,186)
	(186,143)
	(143,190)
	(190,143)
	(143,205)
	(205,143)
	(143,208)
	(208,143)
	(143,211)
	(211,143)
	(144,181)
	(181,144)
	(144,185)
	(185,144)
	(144,190)
	(190,144)
	(144,205)
	(205,144)
	(144,208)
	(208,144)
	(144,211)
	(211,144)
	(145,184)
	(184,145)
	(145,188)
	(188,145)
	(145,191)
	(191,145)
	(145,205)
	(205,145)
	(145,208)
	(208,145)
	(145,211)
	(211,145)
	(146,183)
	(183,146)
	(146,187)
	(187,146)
	(146,191)
	(191,146)
	(146,205)
	(205,146)
	(146,208)
	(208,146)
	(146,211)
	(211,146)
	(147,186)
	(186,147)
	(147,189)
	(189,147)
	(147,192)
	(192,147)
	(147,205)
	(205,147)
	(147,208)
	(208,147)
	(147,211)
	(211,147)
	(148,185)
	(185,148)
	(148,189)
	(189,148)
	(148,192)
	(192,148)
	(148,205)
	(205,148)
	(148,208)
	(208,148)
	(148,211)
	(211,148)
	(149,187)
	(187,149)
	(149,188)
	(188,149)
	(149,190)
	(190,149)
	(149,191)
	(191,149)
	(149,192)
	(192,149)
	(149,205)
	(205,149)
	(149,208)
	(208,149)
	(149,211)
	(211,149)
	(150,183)
	(183,150)
	(150,184)
	(184,150)
	(150,189)
	(189,150)
	(150,191)
	(191,150)
	(150,192)
	(192,150)
	(150,205)
	(205,150)
	(150,208)
	(208,150)
	(150,211)
	(211,150)
	(151,185)
	(185,151)
	(151,186)
	(186,151)
	(151,189)
	(189,151)
	(151,190)
	(190,151)
	(151,192)
	(192,151)
	(151,205)
	(205,151)
	(151,208)
	(208,151)
	(151,211)
	(211,151)
	(152,187)
	(187,152)
	(152,188)
	(188,152)
	(152,189)
	(189,152)
	(152,190)
	(190,152)
	(152,191)
	(191,152)
	(152,205)
	(205,152)
	(152,208)
	(208,152)
	(152,211)
	(211,152)
	(153,193)
	(193,153)
	(153,194)
	(194,153)
	(153,195)
	(195,153)
	(153,196)
	(196,153)
	(153,197)
	(197,153)
	(153,198)
	(198,153)
	(153,199)
	(199,153)
	(153,200)
	(200,153)
	(153,201)
	(201,153)
	(153,202)
	(202,153)
	(153,203)
	(203,153)
	(153,204)
	(204,153)
	(153,206)
	(206,153)
	(153,207)
	(207,153)
	(153,208)
	(208,153)
	(153,211)
	(211,153)
	(154,169)
	(169,154)
	(154,170)
	(170,154)
	(154,171)
	(171,154)
	(154,172)
	(172,154)
	(154,173)
	(173,154)
	(154,174)
	(174,154)
	(154,175)
	(175,154)
	(154,176)
	(176,154)
	(154,177)
	(177,154)
	(154,178)
	(178,154)
	(154,179)
	(179,154)
	(154,180)
	(180,154)
	(154,205)
	(205,154)
	(154,207)
	(207,154)
	(154,208)
	(208,154)
	(154,211)
	(211,154)
	(155,181)
	(181,155)
	(155,182)
	(182,155)
	(155,183)
	(183,155)
	(155,184)
	(184,155)
	(155,185)
	(185,155)
	(155,186)
	(186,155)
	(155,187)
	(187,155)
	(155,188)
	(188,155)
	(155,189)
	(189,155)
	(155,190)
	(190,155)
	(155,191)
	(191,155)
	(155,192)
	(192,155)
	(155,205)
	(205,155)
	(155,206)
	(206,155)
	(155,208)
	(208,155)
	(155,211)
	(211,155)
	(156,193)
	(193,156)
	(156,194)
	(194,156)
	(156,195)
	(195,156)
	(156,196)
	(196,156)
	(156,197)
	(197,156)
	(156,198)
	(198,156)
	(156,199)
	(199,156)
	(156,200)
	(200,156)
	(156,201)
	(201,156)
	(156,202)
	(202,156)
	(156,203)
	(203,156)
	(156,204)
	(204,156)
	(156,205)
	(205,156)
	(156,206)
	(206,156)
	(156,207)
	(207,156)
	(156,211)
	(211,156)
	(157,209)
	(209,157)
	(157,212)
	(212,157)
	(158,209)
	(209,158)
	(158,212)
	(212,158)
	(159,209)
	(209,159)
	(159,212)
	(212,159)
	(160,209)
	(209,160)
	(160,212)
	(212,160)
	(161,209)
	(209,161)
	(161,212)
	(212,161)
	(162,209)
	(209,162)
	(162,212)
	(212,162)
	(163,209)
	(209,163)
	(163,212)
	(212,163)
	(164,209)
	(209,164)
	(164,212)
	(212,164)
	(165,209)
	(209,165)
	(165,212)
	(212,165)
	(166,209)
	(209,166)
	(166,212)
	(212,166)
	(167,209)
	(209,167)
	(167,212)
	(212,167)
	(168,209)
	(209,168)
	(168,212)
	(212,168)
	(169,209)
	(209,169)
	(169,212)
	(212,169)
	(170,209)
	(209,170)
	(170,212)
	(212,170)
	(171,209)
	(209,171)
	(171,212)
	(212,171)
	(172,209)
	(209,172)
	(172,212)
	(212,172)
	(173,209)
	(209,173)
	(173,212)
	(212,173)
	(174,209)
	(209,174)
	(174,212)
	(212,174)
	(175,209)
	(209,175)
	(175,212)
	(212,175)
	(176,209)
	(209,176)
	(176,212)
	(212,176)
	(177,209)
	(209,177)
	(177,212)
	(212,177)
	(178,209)
	(209,178)
	(178,212)
	(212,178)
	(179,209)
	(209,179)
	(179,212)
	(212,179)
	(180,209)
	(209,180)
	(180,212)
	(212,180)
	(181,209)
	(209,181)
	(181,212)
	(212,181)
	(182,209)
	(209,182)
	(182,212)
	(212,182)
	(183,209)
	(209,183)
	(183,212)
	(212,183)
	(184,209)
	(209,184)
	(184,212)
	(212,184)
	(185,209)
	(209,185)
	(185,212)
	(212,185)
	(186,209)
	(209,186)
	(186,212)
	(212,186)
	(187,209)
	(209,187)
	(187,212)
	(212,187)
	(188,209)
	(209,188)
	(188,212)
	(212,188)
	(189,209)
	(209,189)
	(189,212)
	(212,189)
	(190,209)
	(209,190)
	(190,212)
	(212,190)
	(191,209)
	(209,191)
	(191,212)
	(212,191)
	(192,209)
	(209,192)
	(192,212)
	(212,192)
	(193,209)
	(209,193)
	(193,212)
	(212,193)
	(194,209)
	(209,194)
	(194,212)
	(212,194)
	(195,209)
	(209,195)
	(195,212)
	(212,195)
	(196,209)
	(209,196)
	(196,212)
	(212,196)
	(197,209)
	(209,197)
	(197,212)
	(212,197)
	(198,209)
	(209,198)
	(198,212)
	(212,198)
	(199,209)
	(209,199)
	(199,212)
	(212,199)
	(200,209)
	(209,200)
	(200,212)
	(212,200)
	(201,209)
	(209,201)
	(201,212)
	(212,201)
	(202,209)
	(209,202)
	(202,212)
	(212,202)
	(203,209)
	(209,203)
	(203,212)
	(212,203)
	(204,209)
	(209,204)
	(204,212)
	(212,204)
	(205,209)
	(209,205)
	(205,212)
	(212,205)
	(206,209)
	(209,206)
	(206,212)
	(212,206)
	(207,209)
	(209,207)
	(207,212)
	(212,207)
	(208,209)
	(209,208)
	(208,212)
	(212,208)
	(209,210)
	(210,209)
	(209,211)
	(211,209)
	(209,212)
	(212,209)
	(210,211)
	(211,210)
	(210,212)
	(212,210)
	(211,212)
	(212,211);
param vertexCount := 212;
end;
